(set-info :smt-lib-version 2.6)
(set-logic LRA)
(set-info :source |
   Monniaux, David; Quantifier Elimination by Lazy Model Enumeration, CAV 2010
|)
(set-info :category "random")
; ./Mjollnir_examples/B5/formula_018.m
(set-info :status unsat)
(assert
 (forall ((|v17:0| Real) )(forall ((|v16:1| Real) )(forall ((|v15:2| Real) )(forall ((|v14:3| Real) )(forall ((|v13:4| Real) )(forall ((|v12:5| Real) )(exists ((|v11:6| Real) )(exists ((|v10:7| Real) )(exists ((|v9:8| Real) )(exists ((|v8:9| Real) )(exists ((|v7:10| Real) )(exists ((|v6:11| Real) )(forall ((|v5:12| Real) )(forall ((|v4:13| Real) )(forall ((|v3:14| Real) )(forall ((|v2:15| Real) )(forall ((|v1:16| Real) )(forall ((|v0:17| Real) )(let ((?x248 14))
(let ((?x66 13))
(let ((?x216 (* ?x66 |v3:14|)))
(let ((?x447 (+ (+ (* (- 11) |v6:11|) (* 11 |v8:9|)) (* (- 3) |v3:14|))))
(let ((?x29 5))
(let ((?x439 (+ (+ (* (- 4) |v12:5|) (* (- 15) |v4:13|)) (* ?x66 |v16:1|))))
(let (($x450 (or (<= (+ ?x439 (* 3 |v4:13|)) ?x29) (<= (+ ?x447 ?x216) ?x248))))
(let ((?x52 (- 5)))
(let ((?x430 (+ (+ (* 0 |v0:17|) (* 10 |v14:3|)) (* 20 |v5:12|))))
(let ((?x352 (- 7)))
(let ((?x424 (+ (+ (+ |v2:15| (* (- 10) |v10:7|)) (* 6 |v5:12|)) (* ?x29 |v6:11|))))
(let (($x451 (and (and (<= ?x424 ?x352) (<= (+ ?x430 (* (- 11) |v4:13|)) ?x52)) $x450)))
(let ((?x161 (- 8)))
(let ((?x413 (+ (+ (* 15 |v5:12|) (* 4 |v1:16|)) (* (- 19) |v6:11|))))
(let ((?x405 (+ (+ (* 7 |v14:3|) (* 3 |v15:2|)) (* (- 10) |v8:9|))))
(let (($x417 (or (<= (+ ?x405 (* (- 13) |v17:0|)) ?x66) (<= (+ ?x413 (* 4 |v5:12|)) ?x161))))
(let ((?x48 7))
(let ((?x396 (+ (+ (* (- 13) |v3:14|) (* 9 |v0:17|)) (* 15 |v1:16|))))
(let ((?x286 2))
(let ((?x37 11))
(let ((?x140 (* ?x37 |v10:7|)))
(let ((?x390 (+ (+ (+ (* (- 12) |v6:11|) (* (- 17) |v1:16|)) ?x140) (* 4 |v0:17|))))
(let (($x418 (and (or (<= ?x390 ?x286) (<= (+ ?x396 (* 6 |v8:9|)) ?x48)) $x417)))
(let ((?x378 (+ (+ (* ?x352 |v6:11|) (* (- 16) |v17:0|)) (* (- 3) |v11:6|))))
(let ((?x182 (- 2)))
(let ((?x343 (* ?x182 |v3:14|)))
(let ((?x372 (+ (+ (+ (* ?x286 |v9:8|) (* ?x161 |v0:17|)) (* (- 6) |v13:4|)) ?x343)))
(let ((?x364 (+ (+ (+ (* (- 19) |v3:14|) (* ?x48 |v1:16|)) (* ?x352 |v13:4|)) (* 17 |v1:16|))))
(let ((?x214 (- 4)))
(let ((?x357 (+ (+ (+ (* ?x66 |v11:6|) (* ?x352 |v12:5|)) (* (- 20) |v9:8|)) (* ?x48 |v0:17|))))
(let (($x383 (or (or (<= ?x357 ?x214) (<= ?x364 ?x286)) (or (<= ?x372 ?x37) (<= (+ ?x378 (* (- 1) |v15:2|)) ?x48)))))
(let ((?x201 12))
(let ((?x349 (+ (+ (+ ?x343 (* 6 |v17:0|)) (* 16 |v10:7|)) (* 15 |v7:10|))))
(let ((?x10 (- 16)))
(let ((?x339 (+ (+ (* (- 1) |v12:5|) (* ?x10 |v16:1|)) (* 17 |v10:7|))))
(let (($x454 (or (<= (+ ?x339 (* (- 14) |v2:15|)) ?x10) (and (and (<= ?x349 ?x201) $x383) (or $x418 $x451)))))
(let ((?x210 (- 11)))
(let ((?x70 20))
(let ((?x252 (* ?x70 |v11:6|)))
(let ((?x327 (+ (+ (* (- 1) |v4:13|) (* ?x10 |v11:6|)) (* (- 1) |v0:17|))))
(let ((?x225 6))
(let ((?x268 (* ?x161 |v7:10|)))
(let ((?x96 (- 15)))
(let ((?x301 (* ?x96 |v1:16|)))
(let (($x322 (<= (+ (+ (+ (* ?x10 |v10:7|) (* (- 17) |v13:4|)) ?x301) ?x268) ?x225)))
(let ((?x314 (+ (+ (+ (* ?x182 |v5:12|) (* 18 |v1:16|)) (* ?x10 |v13:4|)) (* (- 20) |v6:11|))))
(let ((?x307 (+ (+ (+ ?x301 (* 3 |v13:4|)) (* 18 |v12:5|)) (* ?x96 |v2:15|))))
(let (($x331 (or (and (<= ?x307 ?x182) (<= ?x314 ?x201)) (and $x322 (<= (+ ?x327 ?x252) ?x210)))))
(let ((?x295 (+ (+ (* (- 19) |v4:13|) (* 15 |v15:2|)) (* ?x52 |v6:11|))))
(let ((?x122 (- 17)))
(let ((?x290 (+ (+ (+ (* 15 |v3:14|) (* ?x214 |v7:10|)) (* ?x286 |v6:11|)) (* (- 3) |v1:16|))))
(let ((?x94 (- 12)))
(let ((?x279 (+ (+ (+ (* ?x225 |v2:15|) (* (- 19) |v8:9|)) (* ?x248 |v9:8|)) (* 18 |v4:13|))))
(let ((?x271 (+ (+ (+ (* 19 |v7:10|) (* ?x161 |v10:7|)) ?x268) (* 10 |v6:11|))))
(let (($x300 (or (or (<= ?x271 ?x225) (<= ?x279 ?x94)) (and (<= ?x290 ?x122) (<= (+ ?x295 (* ?x225 |v3:14|)) ?x225)))))
(let ((?x260 (+ (+ (+ ?x252 (* 17 |v2:15|)) (* (- 14) |v12:5|)) (* ?x182 |v2:15|))))
(let ((?x250 (+ (+ (+ (* ?x182 |v5:12|) (* ?x161 |v12:5|)) (* 16 |v15:2|)) (* ?x248 |v17:0|))))
(let ((?x100 17))
(let ((?x240 (+ (+ (+ (* ?x94 |v2:15|) (* ?x52 |v10:7|)) (* ?x210 |v11:6|)) (* 3 |v3:14|))))
(let ((?x43 10))
(let ((?x230 (+ (+ (+ (* (- 19) |v4:13|) (* ?x225 |v16:1|)) (* ?x201 |v6:11|)) (* ?x66 |v17:0|))))
(let ((?x60 (- 20)))
(let (($x222 (<= (+ (+ (+ (* ?x214 |v4:13|) ?x216) (* ?x161 |v9:8|)) (* ?x100 |v4:13|)) ?x60)))
(let ((?x209 (+ (+ (+ (* ?x10 |v5:12|) (* ?x201 |v6:11|)) (* 4 |v11:6|)) (* (- 9) |v13:4|))))
(let ((?x150 (- 1)))
(let ((?x192 (+ (+ (* 18 |v8:9|) (* (- 10) |v2:15|)) (* (- 13) |v2:15|))))
(let (($x233 (and (or (<= (+ ?x192 (* 8 |v15:2|)) ?x150) (<= ?x209 ?x210)) (or $x222 (<= ?x230 ?x43)))))
(let (($x264 (or $x233 (and (<= ?x240 ?x100) (or (<= ?x250 1) (<= ?x260 ?x66))))))
(let ((?x179 (+ (+ (* ?x43 |v11:6|) (* 4 |v2:15|)) (* (- 3) |v10:7|))))
(let ((?x112 3))
(let ((?x167 (+ (+ (+ (* ?x161 |v16:1|) (* ?x37 |v14:3|)) (* 19 |v5:12|)) (* ?x37 |v1:16|))))
(let ((?x157 (+ (+ (+ (* ?x96 |v15:2|) (* ?x150 |v13:4|)) (* 0 |v4:13|)) (* ?x112 |v2:15|))))
(let ((?x14 9))
(let ((?x146 (+ (+ (+ ?x140 (* ?x112 |v12:5|)) (* (- 10) |v1:16|)) (* ?x96 |v17:0|))))
(let (($x184 (and (or (or (<= ?x146 ?x14) (<= ?x157 ?x10)) (<= ?x167 ?x112)) (<= (+ ?x179 (* ?x60 |v14:3|)) ?x182))))
(let ((?x130 (+ (+ (* ?x122 |v15:2|) (* (- 13) |v16:1|)) (* 16 |v7:10|))))
(let ((?x115 15))
(let (($x118 (<= (+ (+ (+ |v3:14| (* ?x14 |v17:0|)) (* ?x112 |v14:3|)) (* ?x115 |v8:9|)) ?x115)))
(let ((?x105 (+ (+ (+ (* ?x94 |v11:6|) (* ?x96 |v12:5|)) (* ?x100 |v11:6|)) (* ?x37 |v16:1|))))
(let ((?x89 (* 19 |v5:12|)))
(let ((?x49 (* ?x48 |v1:16|)))
(let ((?x90 (+ (+ (+ (* (- 19) |v5:12|) (* (- 13) |v1:16|)) ?x49) ?x89)))
(let (($x137 (and (and (<= ?x90 ?x60) (<= ?x105 ?x96)) (and $x118 (<= (+ ?x130 (* ?x66 |v0:17|)) 1)))))
(let ((?x77 (+ (+ (+ (* ?x66 |v11:6|) |v12:5|) (* ?x70 |v4:13|)) (* (- 10) |v3:14|))))
(let (($x63 (<= (+ (+ (+ ?x49 (* ?x52 |v8:9|)) (* ?x52 |v17:0|)) (* ?x60 |v9:8|)) ?x14)))
(let ((?x42 (+ (+ (+ (* ?x29 |v12:5|) (* (- 6) |v14:3|)) (* ?x37 |v4:13|)) (* ?x37 |v13:4|))))
(let ((?x24 0))
(let ((?x23 (+ (+ (+ (* ?x10 |v4:13|) (* ?x14 |v5:12|)) (* ?x10 |v6:11|)) (* (- 13) |v4:13|))))
(let (($x138 (and (and (or (<= ?x23 ?x24) (<= ?x42 ?x43)) (or $x63 (<= ?x77 ?x43))) $x137)))
(or (and (and $x138 $x184) (and $x264 (and $x300 $x331))) $x454)))))))))))))))))))))))))))))))))))))))))))))))))))))))))))))))))))))))))))))))))))))))))))
)
)
)
)
)
)
)
)
)
)
)
)
)
)
)
)
)
)
(check-sat)
(exit)

